x = 15;
y = 20;
c = 62;
n = 54;

p = [63  72  34  45  18  30  95  52  79  22  47  95  28  33  14  51  36  12  69  43  90  65  95  46  59  32  53  81  86  33  81  62  63  45  88  51  25  34  88  40  74  77  33  92  84  53  75  42  19  52  45  71  34  92];
w = [2  8  1  7  8  2  3  9  7  1  9  8  5  3  2  4  4  4  8  6  4  9  3  1  5  6  3  5  3  9  7  2  10  8  5  5  8  6  4  2  6  8  3  5  2  7  7  1  3  2  3  5  2  1];
s = [2  7  13  1  5  11  13  14  2  6  14  8  1  13  11  10  8  2  1  7  6  11  6  15  15  8  6  9  4  15  8  6  3  9  11  3  7  10  4  7  3  10  6  13  4  12  11  13  14  6  5  12  14  11];
